(set-logic QF_S)
(declare-fun T_SELECT_15 () Bool)
(declare-fun T_a7 () Bool)
(declare-fun T_a8 () Bool)
(declare-fun I0_249 () Int)
(declare-fun I0_253 () Int)
(declare-fun I1_249 () Int)
(declare-fun I1_253 () Int)
(declare-fun I2_249 () Int)
(declare-fun I2_253 () Int)
(declare-fun PCTEMP_LHS_65 () Int)
(declare-fun T_ac () Int)
(declare-fun NEW_DGNode_741 () String)
(declare-fun NEW_DGNode_742 () String)
(declare-fun PCTEMP_LHS_69 () String)
(assert (= PCTEMP_LHS_69 NEW_DGNode_742))
(assert (= NEW_DGNode_742 NEW_DGNode_741))
(assert (not (str.in.re NEW_DGNode_742 (str.to.re "+"))))
(assert (not (str.in.re NEW_DGNode_741 (str.to.re "%"))))
(assert (= T_SELECT_15 (not (= PCTEMP_LHS_65 (- 1)))))
(assert T_a8)
(assert (= T_a8 (not T_a7)))
(assert (= T_a7 (= PCTEMP_LHS_65 (- 1))))
(assert (= I0_249 (- PCTEMP_LHS_65 0)))
(assert (>= PCTEMP_LHS_65 0))
(assert (= I2_249 I1_249))
(assert (<= PCTEMP_LHS_65 I1_249))
(assert (= T_ac (+ PCTEMP_LHS_65 1)))
(assert (>= T_ac 0))
(assert (>= I2_253 T_ac))
(assert (= I2_253 I1_253))
(assert (<= I2_253 I1_253))
(assert (= I0_253 (- I2_253 T_ac)))
(assert (= I0_253 (str.len PCTEMP_LHS_69))) ; len 0
(check-sat)
